set VV := 0 1 2 3 4 5 6 7 8 9 10 11 12 13 14 15 16 17 18 19 20 21 22 23 24 25 26 27 28 29 30 31 32 33 34 35 36 37 38 39 40 41 42 43 44 45 ;
set VS := 0 1 2 3 4 5 6 7 8 9 10 11 12 13 14 15 16 17 18 19 20 21 22 23 24 25 26 27 28 29 30 31 32 33 34 35 36 37 38 39 40 41 42 43 44 45 46 47 48 49 50 51 52 53 54 55 56 57 58 59 60 61 62 63 64 65 66 67 68 69 70 71 72 73 74 75 76 77 78 79 80 81 82 83 84 85 86 87 88 89 90 91 92 93 94 95 96 ;
param cv := 
0 16
1 20
2 20
3 13
4 21
5 24
6 14
7 10
8 23
9 24
10 20
11 13
12 21
13 20
14 13
15 15
16 18
17 23
18 20
19 16
20 25
21 17
22 12
23 13
24 20
25 18
26 22
27 25
28 13
29 12
30 20
31 22
32 12
33 25
34 18
35 16
36 25
37 22
38 18
39 16
40 18
41 18
42 22
43 16
44 15
45 16
;
param cs := 
0 33
1 20
2 36
3 35
4 25
5 32
6 31
7 30
8 23
9 22
10 22
11 38
12 32
13 34
14 32
15 39
16 40
17 24
18 23
19 24
20 21
21 35
22 36
23 38
24 32
25 35
26 36
27 21
28 21
29 21
30 31
31 24
32 28
33 25
34 28
35 21
36 35
37 25
38 31
39 38
40 39
41 24
42 35
43 24
44 23
45 25
46 20
47 20
48 24
49 22
50 20
51 34
52 37
53 24
54 31
55 38
56 36
57 37
58 28
59 30
60 30
61 34
62 38
63 30
64 31
65 27
66 21
67 27
68 39
69 29
70 39
71 22
72 25
73 27
74 24
75 36
76 30
77 22
78 20
79 40
80 24
81 27
82 32
83 33
84 27
85 23
86 20
87 32
88 27
89 22
90 24
91 26
92 27
93 39
94 22
95 30
96 35
;
param bv:	 0 1 2 3 4 5 6 7 8 9 10 11 12 13 14 15 16 17 18 19 20 21 22 23 24 25 26 27 28 29 30 31 32 33 34 35 36 37 38 39 40 41 42 43 44 45 := 
		0 0 0 0 0 0 0 23 0 20 0 0 0 0 0 0 0 0 23 0 0 0 0 0 0 0 0 0 0 24 0 23 0 17 0 23 0 0 0 0 0 0 0 11 0 0 0 
		1 0 0 0 0 11 0 0 13 0 0 0 0 0 0 0 0 0 0 0 0 0 0 0 0 0 0 0 0 0 0 0 0 0 0 0 0 0 0 0 0 0 0 0 0 0 0 
		2 0 0 0 0 0 0 0 0 0 0 21 0 0 0 0 0 24 0 0 0 0 0 0 0 0 0 0 0 0 0 13 0 0 0 21 0 0 0 0 21 15 0 0 0 13 0 
		3 0 0 0 0 0 0 0 0 22 0 0 0 0 0 0 0 0 0 0 0 0 0 0 0 0 0 0 0 0 0 0 0 0 0 0 0 0 0 0 0 11 0 0 0 0 0 
		4 0 0 0 0 0 0 0 0 10 0 0 0 0 0 0 0 0 16 0 0 0 0 18 0 20 0 0 0 0 19 0 0 14 0 0 0 16 20 0 0 0 0 0 0 16 0 
		5 0 0 0 0 0 0 0 0 0 0 20 0 0 0 0 0 0 0 0 0 0 0 0 0 0 0 0 0 0 0 0 0 0 0 0 0 0 0 0 0 0 0 0 10 0 14 
		6 0 0 0 0 0 0 0 0 0 0 0 0 0 0 0 0 0 22 0 0 0 0 0 0 13 0 0 0 24 0 0 0 0 0 0 0 0 0 0 0 0 0 0 0 0 0 
		7 0 0 0 0 0 0 0 0 0 0 0 0 0 0 0 0 0 0 0 0 0 0 0 0 0 14 12 0 20 0 0 0 0 0 0 0 0 0 0 0 21 0 0 14 0 19 
		8 0 0 0 0 0 0 0 0 0 0 0 0 0 0 0 0 13 0 0 0 0 0 18 0 0 0 0 0 0 0 0 0 0 0 0 0 0 0 0 0 0 0 0 0 0 0 
		9 0 0 0 0 0 0 0 0 0 0 0 0 0 0 0 0 0 0 0 21 0 0 0 0 0 0 0 0 0 0 0 0 0 0 0 0 0 0 0 0 0 0 0 0 0 0 
		10 0 0 0 0 0 0 0 0 0 0 0 0 0 0 0 14 0 0 0 18 0 23 0 0 0 0 0 0 0 0 0 0 0 20 0 17 0 0 18 0 0 0 0 0 0 0 
		11 0 0 0 0 0 0 0 0 0 0 0 0 0 0 0 0 0 0 0 0 0 24 0 0 0 0 0 0 0 0 0 0 16 0 0 0 0 0 0 0 0 0 0 17 0 0 
		12 0 0 0 0 0 0 0 0 0 0 0 0 0 15 0 0 0 0 25 0 0 0 12 0 0 0 0 0 0 20 0 12 21 0 12 0 0 0 0 0 0 0 15 0 15 0 
		13 0 0 0 0 0 0 0 0 0 0 0 0 0 0 0 0 0 0 0 0 0 0 0 0 0 0 0 12 0 0 0 0 0 0 0 0 0 0 0 0 21 0 0 0 0 0 
		14 0 0 0 0 0 0 0 0 0 0 0 0 0 0 0 12 14 0 0 0 16 0 0 0 0 0 0 0 18 0 0 11 0 13 0 0 0 0 0 0 0 0 0 0 0 0 
		15 0 0 0 0 0 0 0 0 0 0 0 0 0 0 0 0 0 0 0 0 0 0 0 0 0 0 0 0 0 0 0 0 0 0 0 0 0 0 23 0 0 0 0 0 0 0 
		16 0 0 0 0 0 0 0 0 0 0 0 0 0 0 0 0 0 0 0 0 13 0 0 0 0 0 0 0 25 0 0 0 0 0 0 0 0 0 24 0 20 0 0 0 0 0 
		17 0 0 0 0 0 0 0 0 0 0 0 0 0 0 0 0 0 0 0 0 0 0 0 0 0 0 0 0 13 0 0 0 0 0 18 0 0 0 0 0 0 0 0 0 0 0 
		18 0 0 0 0 0 0 0 0 0 0 0 0 0 0 0 0 0 0 0 0 22 0 0 0 0 0 0 0 11 0 0 0 13 0 0 25 0 0 0 0 0 0 0 0 0 0 
		19 0 0 0 0 0 0 0 0 0 0 0 0 0 0 0 0 0 0 0 0 0 0 0 0 0 0 0 0 0 0 0 0 0 0 0 0 0 0 0 0 0 0 0 0 0 24 
		20 0 0 0 0 0 0 0 0 0 0 0 0 0 0 0 0 0 0 0 0 0 0 0 0 0 0 0 0 0 0 21 0 0 0 0 0 0 0 0 0 0 0 0 0 0 0 
		21 0 0 0 0 0 0 0 0 0 0 0 0 0 0 0 0 0 0 0 0 0 0 0 0 0 0 11 0 0 0 17 12 0 22 0 12 0 0 0 0 0 0 0 0 0 0 
		22 0 0 0 0 0 0 0 0 0 0 0 0 0 0 0 0 0 0 0 0 0 0 0 0 0 0 0 0 0 0 0 0 0 0 0 0 0 22 0 0 0 0 0 0 0 0 
		23 0 0 0 0 0 0 0 0 0 0 0 0 0 0 0 0 0 0 0 0 0 0 0 0 0 0 0 0 0 24 0 24 20 0 0 0 0 0 0 0 0 0 0 20 14 0 
		24 0 0 0 0 0 0 0 0 0 0 0 0 0 0 0 0 0 0 0 0 0 0 0 0 0 0 0 0 0 0 0 0 0 0 0 0 0 0 0 0 0 0 0 0 0 0 
		25 0 0 0 0 0 0 0 0 0 0 0 0 0 0 0 0 0 0 0 0 0 0 0 0 0 0 0 0 0 0 0 0 0 0 0 0 0 19 0 0 0 0 0 0 0 0 
		26 0 0 0 0 0 0 0 0 0 0 0 0 0 0 0 0 0 0 0 0 0 0 0 0 0 0 0 0 0 0 0 0 0 17 0 0 0 0 0 0 0 0 0 0 0 0 
		27 0 0 0 0 0 0 0 0 0 0 0 0 0 0 0 0 0 0 0 0 0 0 0 0 0 0 0 0 21 0 0 0 0 0 0 0 0 0 0 0 0 0 0 0 0 0 
		28 0 0 0 0 0 0 0 0 0 0 0 0 0 0 0 0 0 0 0 0 0 0 0 0 0 0 0 0 0 13 25 22 11 0 16 11 0 0 0 0 18 0 0 0 0 0 
		29 0 0 0 0 0 0 0 0 0 0 0 0 0 0 0 0 0 0 0 0 0 0 0 0 0 0 0 0 0 0 0 0 0 0 21 0 0 0 0 25 0 0 0 0 22 0 
		30 0 0 0 0 0 0 0 0 0 0 0 0 0 0 0 0 0 0 0 0 0 0 0 0 0 0 0 0 0 0 0 0 0 0 0 0 0 0 0 0 13 0 0 0 0 0 
		31 0 0 0 0 0 0 0 0 0 0 0 0 0 0 0 0 0 0 0 0 0 0 0 0 0 0 0 0 0 0 0 0 0 0 0 0 0 0 0 21 0 0 0 0 0 0 
		32 0 0 0 0 0 0 0 0 0 0 0 0 0 0 0 0 0 0 0 0 0 0 0 0 0 0 0 0 0 0 0 0 0 0 0 0 0 0 0 0 0 0 0 0 16 0 
		33 0 0 0 0 0 0 0 0 0 0 0 0 0 0 0 0 0 0 0 0 0 0 0 0 0 0 0 0 0 0 0 0 0 0 0 0 0 0 0 0 0 0 0 0 0 0 
		34 0 0 0 0 0 0 0 0 0 0 0 0 0 0 0 0 0 0 0 0 0 0 0 0 0 0 0 0 0 0 0 0 0 0 0 0 0 0 0 0 0 0 0 13 0 0 
		35 0 0 0 0 0 0 0 0 0 0 0 0 0 0 0 0 0 0 0 0 0 0 0 0 0 0 0 0 0 0 0 0 0 0 0 0 0 0 0 0 0 0 0 0 0 0 
		36 0 0 0 0 0 0 0 0 0 0 0 0 0 0 0 0 0 0 0 0 0 0 0 0 0 0 0 0 0 0 0 0 0 0 0 0 0 0 10 0 0 0 0 0 22 0 
		37 0 0 0 0 0 0 0 0 0 0 0 0 0 0 0 0 0 0 0 0 0 0 0 0 0 0 0 0 0 0 0 0 0 0 0 0 0 0 0 0 0 0 0 0 18 0 
		38 0 0 0 0 0 0 0 0 0 0 0 0 0 0 0 0 0 0 0 0 0 0 0 0 0 0 0 0 0 0 0 0 0 0 0 0 0 0 0 0 0 0 0 0 0 0 
		39 0 0 0 0 0 0 0 0 0 0 0 0 0 0 0 0 0 0 0 0 0 0 0 0 0 0 0 0 0 0 0 0 0 0 0 0 0 0 0 0 0 0 0 0 0 25 
		40 0 0 0 0 0 0 0 0 0 0 0 0 0 0 0 0 0 0 0 0 0 0 0 0 0 0 0 0 0 0 0 0 0 0 0 0 0 0 0 0 0 0 13 0 0 24 
		41 0 0 0 0 0 0 0 0 0 0 0 0 0 0 0 0 0 0 0 0 0 0 0 0 0 0 0 0 0 0 0 0 0 0 0 0 0 0 0 0 0 0 0 0 19 0 
		42 0 0 0 0 0 0 0 0 0 0 0 0 0 0 0 0 0 0 0 0 0 0 0 0 0 0 0 0 0 0 0 0 0 0 0 0 0 0 0 0 0 0 0 0 0 0 
		43 0 0 0 0 0 0 0 0 0 0 0 0 0 0 0 0 0 0 0 0 0 0 0 0 0 0 0 0 0 0 0 0 0 0 0 0 0 0 0 0 0 0 0 0 21 0 
		44 0 0 0 0 0 0 0 0 0 0 0 0 0 0 0 0 0 0 0 0 0 0 0 0 0 0 0 0 0 0 0 0 0 0 0 0 0 0 0 0 0 0 0 0 0 0 
		45 0 0 0 0 0 0 0 0 0 0 0 0 0 0 0 0 0 0 0 0 0 0 0 0 0 0 0 0 0 0 0 0 0 0 0 0 0 0 0 0 0 0 0 0 0 0 
;
param bs:	 0 1 2 3 4 5 6 7 8 9 10 11 12 13 14 15 16 17 18 19 20 21 22 23 24 25 26 27 28 29 30 31 32 33 34 35 36 37 38 39 40 41 42 43 44 45 46 47 48 49 50 51 52 53 54 55 56 57 58 59 60 61 62 63 64 65 66 67 68 69 70 71 72 73 74 75 76 77 78 79 80 81 82 83 84 85 86 87 88 89 90 91 92 93 94 95 96 := 
		0 0 0 0 0 0 0 30 30 0 0 0 0 0 0 0 0 0 0 0 0 0 0 27 0 0 0 0 22 0 21 0 0 0 0 0 0 21 0 0 0 0 0 37 0 0 0 34 0 0 0 0 0 0 0 0 0 0 0 0 0 0 0 30 0 0 0 0 35 0 0 0 0 0 31 0 0 0 32 35 0 0 0 0 0 0 23 0 0 0 39 0 0 23 22 0 0 0 
		1 0 0 0 0 0 0 0 25 0 0 0 0 0 0 0 27 34 0 0 0 0 0 0 0 0 0 0 23 0 0 0 0 0 34 0 0 0 0 0 0 0 0 0 0 25 0 0 0 29 0 0 0 0 0 0 0 0 0 0 33 0 0 36 0 0 0 0 0 0 0 0 0 0 0 0 0 0 0 25 0 0 0 20 0 0 0 23 0 0 0 0 0 0 0 0 0 0 
		2 0 0 0 0 0 0 0 0 0 0 0 0 31 0 0 0 0 0 0 29 0 0 0 0 0 0 0 0 30 0 0 0 0 0 20 0 0 0 0 0 0 0 0 0 0 0 0 0 0 0 0 0 0 0 0 0 22 36 0 0 0 0 0 0 34 0 0 0 0 0 26 0 0 0 0 0 0 0 0 0 0 0 0 0 0 0 0 0 0 36 0 0 0 0 0 0 0 
		3 0 0 0 0 0 0 0 0 0 0 0 0 0 0 0 0 0 0 0 0 0 0 0 0 0 0 0 0 0 0 35 0 0 0 0 0 0 0 0 0 0 0 0 0 0 0 0 0 0 0 0 0 0 0 0 35 0 0 0 0 0 0 0 0 0 0 0 0 0 0 0 0 0 0 0 0 0 0 0 0 0 35 0 0 0 33 0 0 23 27 23 0 0 0 36 0 0 
		4 0 0 0 0 0 0 0 0 0 0 0 0 0 0 0 40 0 32 0 26 0 0 0 0 0 22 0 0 0 0 0 0 0 0 0 0 0 0 0 40 0 0 0 0 0 0 0 0 0 33 0 0 0 0 0 21 20 0 38 0 0 0 0 0 0 0 0 0 31 0 0 0 0 38 0 0 0 0 0 0 0 0 0 0 0 0 0 26 0 0 0 0 0 39 0 0 0 
		5 0 0 0 0 0 0 0 0 33 0 0 0 0 0 0 0 0 0 0 0 0 0 0 0 0 0 0 0 0 0 0 0 29 0 0 0 0 0 0 0 0 0 0 0 0 0 0 0 0 0 0 31 27 0 0 0 24 0 30 0 0 0 0 0 0 0 40 0 0 0 0 0 0 0 0 0 0 0 0 0 0 0 0 0 0 0 0 0 38 0 0 0 0 0 0 0 0 
		6 30 0 0 0 0 0 0 30 0 0 0 0 0 0 27 0 0 0 0 0 0 0 0 0 0 0 0 0 0 0 0 0 0 0 0 26 0 0 0 0 24 0 0 0 0 0 0 0 0 27 0 0 0 0 0 0 0 0 34 0 0 0 24 0 0 0 0 0 0 0 0 0 0 0 0 29 0 0 0 0 0 39 0 0 0 0 0 0 0 27 0 0 0 0 0 0 0 
		7 30 25 0 0 0 0 30 0 0 0 0 0 0 0 0 0 0 0 0 0 25 0 21 0 0 28 22 0 33 0 0 0 0 0 0 0 0 0 0 0 0 0 0 0 0 0 20 0 0 24 0 0 0 40 0 0 0 0 0 40 0 0 0 0 0 0 0 0 0 0 0 0 0 0 0 36 0 0 0 0 0 0 26 0 0 0 0 0 0 0 0 0 37 0 0 0 0 
		8 0 0 0 0 0 33 0 0 0 0 0 0 0 0 0 33 0 30 34 0 0 0 0 0 0 0 0 0 0 0 0 0 0 0 0 23 0 0 0 0 35 0 0 0 0 0 0 24 0 0 0 0 0 0 0 0 24 0 22 0 27 34 27 0 0 0 0 0 32 0 0 0 0 0 0 0 0 0 0 0 27 0 0 0 40 0 0 0 0 0 0 0 0 0 0 0 0 
		9 0 0 0 0 0 0 0 0 0 0 0 0 0 0 0 0 0 0 0 20 0 0 0 0 0 0 0 0 0 0 0 0 0 0 0 0 0 0 0 0 0 0 25 0 0 0 0 0 0 31 0 0 0 0 0 0 0 0 0 0 0 0 0 0 36 0 0 0 0 0 0 0 0 23 0 0 0 0 0 0 0 0 0 0 0 0 0 0 0 0 0 0 0 0 20 0 0 
		10 0 0 0 0 0 0 0 0 0 0 0 0 0 0 0 0 24 0 24 0 0 26 0 0 0 27 0 0 0 35 0 0 0 0 0 0 28 0 0 0 0 0 25 0 0 0 26 33 0 0 0 0 0 0 32 0 0 0 0 0 0 31 0 0 33 22 0 0 0 0 0 0 0 0 0 0 0 0 0 0 0 0 0 0 0 0 24 0 0 0 39 0 0 0 0 0 0 
		11 0 0 0 0 0 0 0 0 0 0 0 0 0 0 0 29 0 36 0 0 32 0 23 0 0 0 0 0 0 24 0 0 0 0 0 0 0 0 0 0 0 0 0 0 0 0 0 0 0 0 0 0 0 38 0 0 0 0 0 0 0 0 0 0 0 0 0 24 0 0 0 0 0 36 25 0 39 0 0 0 0 0 0 0 0 0 0 34 0 0 0 0 0 0 0 0 0 
		12 0 0 31 0 0 0 0 0 0 0 0 0 0 27 0 0 0 0 22 0 0 0 0 0 0 0 0 0 0 0 0 0 0 0 0 0 0 0 0 0 0 0 0 22 0 0 0 0 0 22 0 0 0 0 0 0 0 0 0 0 0 26 0 0 0 0 20 0 0 0 24 0 0 0 0 0 0 0 0 35 0 0 0 0 0 27 0 0 0 20 0 0 0 0 0 37 0 
		13 0 0 0 0 0 0 0 0 0 0 0 0 27 0 0 0 0 0 0 0 0 0 0 0 37 0 0 0 0 0 0 0 0 0 0 0 38 0 0 32 0 0 0 0 0 0 0 0 0 0 0 0 0 0 0 0 0 0 0 0 0 0 30 0 0 0 0 0 22 0 0 0 0 0 0 0 0 0 0 0 0 0 0 0 0 0 20 0 0 0 0 0 0 0 27 0 0 
		14 0 0 0 0 0 0 27 0 0 0 0 0 0 0 0 0 0 0 0 0 0 0 0 0 0 0 0 0 0 0 0 0 0 0 0 0 0 0 30 0 0 0 0 0 0 26 0 23 0 0 0 0 0 37 0 0 0 0 0 0 0 0 0 23 0 0 0 0 0 0 0 0 0 0 0 0 0 0 0 0 0 36 0 0 0 0 0 0 0 0 0 23 0 0 0 0 0 
		15 0 27 0 0 40 0 0 0 33 0 0 29 0 0 0 0 0 0 0 0 0 0 36 0 0 0 0 0 0 0 0 0 0 0 0 0 0 0 0 0 0 0 0 0 0 0 0 0 0 0 0 0 0 0 0 0 0 0 0 0 26 0 0 32 0 0 0 0 0 0 0 0 0 0 0 0 0 0 0 0 0 0 0 0 0 0 0 0 0 0 0 0 0 29 0 35 0 
		16 0 34 0 0 0 0 0 0 0 0 24 0 0 0 0 0 0 0 0 0 0 0 0 0 0 0 0 0 0 0 0 0 0 0 0 0 0 0 0 0 0 0 0 23 0 30 28 0 0 0 23 0 24 0 0 0 0 0 0 0 0 0 0 0 0 0 0 0 0 24 0 0 39 0 0 28 0 0 0 0 0 0 0 0 0 0 0 0 0 0 32 0 29 0 0 29 0 
		17 0 0 0 0 32 0 0 0 30 0 0 36 0 0 0 0 0 0 0 31 0 0 0 0 0 0 0 0 0 0 0 0 0 0 0 0 0 0 0 25 0 0 0 0 0 0 0 0 0 0 0 0 0 0 0 0 0 40 26 0 0 0 0 0 0 0 0 0 0 0 0 0 0 0 0 0 0 0 0 0 0 0 0 0 0 0 0 0 0 0 0 0 0 0 35 0 0 
		18 0 0 0 0 0 0 0 0 34 0 24 0 22 0 0 0 0 0 0 0 0 32 0 0 0 0 0 0 0 0 27 0 0 0 0 0 28 0 0 0 34 0 0 0 0 0 30 0 0 0 26 0 0 0 40 0 0 0 0 0 0 0 0 0 0 0 0 0 0 0 0 0 0 0 0 0 0 0 0 0 33 0 39 0 0 0 0 0 0 0 0 0 0 0 0 0 0 
		19 0 0 29 0 26 0 0 0 0 20 0 0 0 0 0 0 0 31 0 0 32 0 0 0 31 0 0 0 0 0 0 35 0 0 0 0 25 0 0 0 29 0 0 0 0 0 0 37 0 0 0 0 34 0 0 0 0 0 30 0 0 0 0 0 0 0 0 0 0 0 0 0 0 0 0 0 0 33 0 28 0 0 0 0 0 0 0 0 0 0 0 0 0 0 0 0 0 
		20 0 0 0 0 0 0 0 25 0 0 0 32 0 0 0 0 0 0 0 32 0 0 0 0 0 0 0 24 0 0 38 0 0 0 0 0 0 0 0 0 0 0 38 0 0 0 0 33 0 0 0 0 0 0 0 0 0 0 0 0 0 0 0 0 0 0 0 0 0 0 0 0 0 0 0 0 0 0 0 0 0 0 0 0 0 0 0 39 0 0 0 0 0 0 0 0 0 
		21 0 0 0 0 0 0 0 0 0 0 26 0 0 0 0 0 0 0 32 0 0 0 0 0 0 0 0 0 0 0 0 27 0 0 0 0 0 0 0 0 0 0 0 0 0 0 0 0 25 25 0 0 0 0 0 0 0 39 0 0 0 0 0 0 0 31 0 0 29 0 0 0 0 0 0 0 0 0 0 0 0 0 0 0 27 0 0 0 0 0 0 0 0 0 0 0 0 
		22 27 0 0 0 0 0 0 21 0 0 0 23 0 0 0 36 0 0 0 0 0 0 0 0 0 0 0 0 0 0 26 0 0 0 0 0 0 0 22 0 0 0 0 0 0 26 0 0 23 0 0 0 27 0 0 0 0 0 0 23 0 0 0 27 0 0 0 0 0 0 0 0 0 0 0 0 29 0 0 0 0 0 0 0 0 0 0 0 0 0 0 0 0 38 0 0 0 
		23 0 0 0 0 0 0 0 0 0 0 0 0 0 0 0 0 0 0 0 0 0 0 0 0 0 0 38 0 0 0 0 0 0 0 0 0 0 0 39 0 0 31 39 0 29 0 0 0 0 0 0 0 0 20 0 0 0 0 0 24 38 0 0 0 26 0 0 0 0 0 0 0 0 0 0 0 0 0 37 0 0 0 0 0 0 0 0 0 0 22 0 0 0 0 0 0 32 
		24 0 0 0 0 0 0 0 0 0 0 0 0 0 37 0 0 0 0 0 31 0 0 0 0 0 0 0 0 0 0 0 0 0 0 0 0 31 27 0 0 0 0 0 0 0 0 0 0 0 0 0 0 0 0 0 0 0 0 0 0 0 0 0 0 0 38 29 0 0 0 0 0 0 0 0 0 0 0 0 26 0 0 22 0 0 0 0 0 0 0 0 0 0 0 0 0 0 
		25 0 0 0 0 22 0 0 28 0 0 27 0 0 0 0 0 0 0 0 0 0 0 0 0 0 0 0 0 0 0 22 0 0 0 0 0 0 0 0 0 0 0 0 0 0 0 0 0 0 0 0 0 0 0 37 0 0 0 0 37 0 0 24 0 26 0 0 0 0 0 0 0 0 0 0 0 0 36 0 31 0 0 0 0 0 0 0 0 0 0 0 0 0 0 32 25 0 
		26 0 0 0 0 0 0 0 22 0 0 0 0 0 0 0 0 0 0 0 0 0 0 0 38 0 0 0 0 0 0 24 0 0 0 0 0 0 0 0 0 0 0 0 0 35 0 0 0 0 0 0 0 0 0 0 0 0 0 0 0 0 0 0 0 0 0 0 0 0 0 0 0 0 0 0 0 0 0 21 0 0 0 0 0 34 0 21 0 35 0 0 0 26 0 0 0 32 
		27 22 23 0 0 0 0 0 0 0 0 0 0 0 0 0 0 0 0 0 0 24 0 0 0 0 0 0 0 0 0 0 35 0 37 0 0 0 40 0 0 0 0 26 0 0 0 0 27 0 36 24 0 0 0 0 0 0 0 0 29 0 0 24 0 0 0 0 0 0 0 0 0 0 0 0 35 0 39 0 0 0 0 0 0 0 0 0 0 0 0 0 0 0 0 0 0 0 
		28 0 0 30 0 0 0 0 33 0 0 0 0 0 0 0 0 0 0 0 0 0 0 0 0 0 0 0 0 0 0 0 0 0 20 0 0 0 23 0 0 0 0 0 0 0 0 0 36 0 0 30 0 0 0 0 0 0 0 24 0 0 0 26 0 0 0 0 0 0 0 0 0 0 0 0 0 0 0 0 35 0 0 0 0 0 0 26 0 0 0 0 0 0 0 0 39 0 
		29 21 0 0 0 0 0 0 0 0 0 35 24 0 0 0 0 0 0 0 0 0 0 0 0 0 0 0 0 0 0 0 0 37 0 0 0 0 0 0 0 0 0 0 0 0 0 0 0 0 0 0 0 0 31 28 0 0 0 0 0 0 0 0 20 0 0 0 0 0 0 0 0 0 0 0 0 0 0 0 0 0 0 0 0 0 0 0 0 37 0 0 0 0 0 0 30 0 
		30 0 0 0 35 0 0 0 0 0 0 0 0 0 0 0 0 0 0 27 0 38 0 26 0 0 22 24 0 0 0 0 0 32 0 0 0 0 0 0 0 0 0 0 23 0 23 40 21 0 36 0 0 0 0 0 0 0 0 0 0 0 39 37 0 0 0 0 0 0 0 0 0 0 0 0 0 0 0 0 0 0 0 0 0 0 0 0 0 0 0 0 0 0 0 25 39 0 
		31 0 0 0 0 0 0 0 0 0 0 0 0 0 0 0 0 0 0 0 35 0 27 0 0 0 0 0 35 0 0 0 0 0 38 0 0 0 0 0 0 0 0 0 0 0 0 32 0 0 0 0 0 0 0 0 0 0 20 0 0 0 0 33 0 36 0 0 0 0 27 0 0 0 20 0 0 0 0 0 39 0 0 0 20 0 21 0 0 0 0 0 0 31 0 0 0 0 
		32 0 0 0 0 0 29 0 0 0 0 0 0 0 0 0 0 0 0 0 0 0 0 0 0 0 0 0 0 0 37 32 0 0 0 0 0 0 0 0 0 0 0 0 0 0 0 0 0 0 0 0 0 0 0 0 0 0 0 23 0 0 0 26 0 0 0 0 0 0 0 0 0 0 0 22 0 36 0 0 0 0 0 0 0 40 0 0 29 0 0 0 0 0 0 0 0 0 
		33 0 34 0 0 0 0 0 0 0 0 0 0 0 0 0 0 0 0 0 0 0 0 0 0 0 0 0 37 20 0 0 38 0 0 37 0 0 0 0 0 36 0 0 0 0 0 0 0 0 0 0 0 0 0 0 0 0 0 0 0 0 0 0 0 20 0 0 0 0 0 0 0 0 0 0 34 0 0 0 22 0 0 0 0 0 40 0 0 0 0 0 0 0 0 0 0 0 
		34 0 0 20 0 0 0 0 0 0 0 0 0 0 0 0 0 0 0 0 0 0 0 0 0 0 0 0 0 0 0 0 0 0 37 0 0 0 0 0 0 0 0 0 0 0 0 29 0 0 0 0 0 0 0 30 0 0 0 0 0 0 0 26 0 0 0 0 0 0 0 0 0 32 0 0 0 0 0 0 0 0 0 0 0 0 0 0 30 0 0 0 0 0 0 0 0 0 
		35 0 0 0 0 0 0 26 0 23 0 0 0 0 0 0 0 0 0 0 0 0 0 0 0 0 0 0 0 0 0 0 0 0 0 0 0 0 0 0 0 0 0 0 0 0 0 0 0 0 0 0 0 0 0 0 0 0 21 0 0 0 0 38 0 0 0 0 0 0 28 0 0 0 0 0 0 0 0 0 0 0 0 0 0 0 0 0 0 0 0 0 0 0 0 0 0 24 
		36 21 0 0 0 0 0 0 0 0 0 28 0 0 38 0 0 0 0 28 25 0 0 0 0 31 0 0 0 0 0 0 0 0 0 0 0 0 0 0 0 0 0 0 0 0 0 0 0 0 0 0 31 0 0 0 0 0 0 31 0 0 0 24 0 0 0 0 0 37 0 0 0 0 0 0 0 0 0 0 0 0 0 0 0 0 0 0 0 0 0 0 0 0 0 0 0 0 
		37 0 0 0 0 0 0 0 0 0 0 0 0 0 0 0 0 0 0 0 0 0 0 0 0 27 0 0 40 23 0 0 0 0 0 0 0 0 0 0 0 0 0 39 0 0 0 0 23 0 0 0 0 0 0 0 0 0 0 0 0 0 0 0 0 0 0 0 0 0 0 0 0 0 34 0 0 0 0 29 22 0 0 0 27 21 0 0 0 0 0 0 0 22 0 28 0 0 
		38 0 0 0 0 0 0 0 0 0 0 0 0 0 0 30 0 0 0 0 0 0 0 22 39 0 0 0 0 0 0 0 0 0 0 0 0 0 0 0 0 0 0 0 0 0 0 0 0 0 0 0 0 0 0 0 0 0 0 0 0 0 0 0 0 24 0 0 0 0 0 0 27 0 0 0 0 0 0 37 29 0 0 0 0 0 0 0 29 0 33 0 22 0 22 0 0 0 
		39 0 0 0 0 40 0 0 0 0 0 0 0 0 32 0 0 0 25 0 0 0 0 0 0 0 0 0 0 0 0 0 0 0 0 0 0 0 0 0 0 0 0 0 0 0 0 0 0 0 0 0 0 0 0 0 0 0 0 0 22 0 0 0 0 0 0 0 0 40 0 0 20 0 0 0 0 0 39 0 23 0 0 0 0 0 0 0 24 28 0 0 0 0 0 23 0 0 
		40 0 0 0 0 0 0 24 0 35 0 0 0 0 0 0 0 0 0 34 29 0 0 0 0 0 0 0 0 0 0 0 0 0 36 0 0 0 0 0 0 0 25 0 0 0 0 0 0 0 0 0 0 0 0 32 36 0 0 0 29 0 0 0 0 29 0 0 0 0 31 0 30 29 0 0 0 0 38 0 0 0 0 0 0 0 0 0 0 0 0 0 0 25 0 0 0 0 
		41 0 0 0 0 0 0 0 0 0 0 0 0 0 0 0 0 0 0 0 0 0 0 0 31 0 0 0 0 0 0 0 0 0 0 0 0 0 0 0 0 25 0 0 0 32 29 22 20 0 0 0 0 0 24 0 0 0 0 0 0 0 0 0 0 0 0 0 0 0 0 0 0 24 0 0 0 0 0 0 0 0 0 0 0 0 0 0 0 0 0 0 0 36 0 0 38 26 
		42 37 0 0 0 0 0 0 0 0 25 25 0 0 0 0 0 0 0 0 0 38 0 0 39 0 0 0 26 0 0 0 0 0 0 0 0 0 39 0 0 0 0 0 0 0 0 0 0 0 31 20 0 0 0 0 0 0 24 0 0 0 0 0 0 0 0 0 0 0 0 0 0 0 0 0 0 0 0 0 29 0 0 0 28 0 34 0 0 0 0 0 0 0 0 0 32 0 
		43 0 0 0 0 0 0 0 0 0 0 0 0 22 0 0 0 23 0 0 0 0 0 0 0 0 0 0 0 0 0 23 0 0 0 0 0 0 0 0 0 0 0 0 0 0 0 0 0 20 32 0 0 0 0 0 0 0 0 0 0 0 0 0 28 0 0 0 0 0 0 0 0 0 0 0 0 40 0 0 0 0 0 0 0 0 0 0 0 0 29 0 0 0 0 0 0 23 
		44 0 25 0 0 0 0 0 0 0 0 0 0 0 0 0 0 0 0 0 0 0 0 0 29 0 0 35 0 0 0 0 0 0 0 0 0 0 0 0 0 0 32 0 0 0 0 0 34 31 0 0 0 0 0 0 0 0 0 0 0 0 0 0 0 0 0 0 23 0 0 0 0 0 0 0 33 0 21 0 37 0 0 0 0 0 0 0 0 0 0 0 0 40 0 0 0 38 
		45 0 0 0 0 0 0 0 0 0 0 0 0 0 0 26 0 30 0 0 0 0 0 26 0 0 0 0 0 0 0 23 0 0 0 0 0 0 0 0 0 0 29 0 0 0 0 0 0 0 33 0 0 0 0 30 28 29 0 0 0 0 0 0 0 0 0 0 26 0 0 0 0 0 0 0 0 0 0 0 33 0 24 0 0 0 0 0 0 0 21 0 0 0 35 0 0 0 
		46 34 0 0 0 0 0 0 20 0 0 26 0 0 0 0 0 28 0 30 0 0 0 0 0 0 0 0 0 0 0 40 32 0 0 29 0 0 0 0 0 0 22 0 0 0 0 0 35 0 0 0 32 0 0 0 0 0 0 0 0 0 0 0 0 28 0 0 0 0 0 0 0 0 0 0 0 0 0 0 0 0 0 20 0 0 0 23 0 0 34 25 0 0 0 0 0 0 
		47 0 0 0 0 0 0 0 0 24 0 33 0 0 0 23 0 0 0 0 37 33 0 0 0 0 0 0 27 36 0 21 0 0 0 0 0 0 23 0 0 0 20 0 0 34 0 35 0 0 32 29 0 30 0 0 0 0 0 0 0 30 0 0 0 0 0 0 0 0 31 0 0 0 0 0 0 0 0 0 0 0 0 0 0 0 27 0 0 23 0 0 0 0 0 0 0 0 
		48 0 29 0 0 0 0 0 0 0 0 0 0 0 0 0 0 0 0 0 0 0 25 23 0 0 0 0 0 0 0 0 0 0 0 0 0 0 0 0 0 0 0 0 20 31 0 0 0 0 0 0 0 0 0 33 0 0 0 24 0 0 0 0 0 0 0 0 0 0 0 0 0 0 0 0 0 0 0 0 34 0 23 0 0 0 35 0 0 0 0 0 0 0 0 0 0 38 
		49 0 0 0 0 33 0 27 24 0 31 0 0 22 0 0 0 0 0 0 0 0 25 0 0 0 0 0 36 0 0 36 0 0 0 0 0 0 0 0 0 0 0 31 32 0 33 0 32 0 0 21 0 0 36 0 0 0 0 0 0 0 0 0 0 0 0 0 0 0 0 0 0 0 0 0 0 0 0 0 0 30 0 0 39 22 0 0 0 0 0 0 0 0 0 0 0 0 
		50 0 0 0 0 0 0 0 0 0 0 0 0 0 0 0 0 23 0 26 0 0 0 0 0 0 0 0 24 30 0 0 0 0 0 0 0 0 0 0 0 0 0 20 0 0 0 0 29 0 21 0 0 0 0 0 0 0 40 0 0 0 0 0 0 0 0 0 0 35 0 40 0 0 0 0 0 0 0 0 0 0 0 0 0 0 0 0 0 0 0 0 0 0 0 0 0 0 
		51 0 0 0 0 0 31 0 0 0 0 0 0 0 0 0 0 0 0 0 0 0 0 0 0 0 0 0 0 0 0 0 0 0 0 0 0 31 0 0 0 0 0 0 0 0 0 32 0 0 0 0 0 0 0 0 0 35 0 0 0 0 0 0 0 0 0 0 0 0 0 0 20 0 0 0 0 0 0 0 0 0 0 0 28 0 36 0 0 0 27 25 0 0 0 24 0 0 
		52 0 0 0 0 0 27 0 0 0 0 0 0 0 0 0 0 24 0 0 34 0 0 27 0 0 0 0 0 0 0 0 0 0 0 0 0 0 0 0 0 0 0 0 0 0 0 0 30 0 0 0 0 0 0 0 0 0 0 0 0 31 0 0 0 0 0 0 0 0 0 0 0 0 0 0 28 0 37 0 0 36 0 0 0 0 0 0 0 32 0 0 0 0 0 23 0 0 
		53 0 0 0 0 0 0 0 40 0 0 0 38 0 0 37 0 0 0 0 0 0 0 0 20 0 0 0 0 0 31 0 0 0 0 0 0 0 0 0 0 0 24 0 0 0 0 0 0 0 36 0 0 0 0 0 0 0 0 0 0 0 0 0 0 0 0 0 0 0 0 0 0 0 0 0 0 20 0 0 0 0 0 0 0 0 0 0 0 0 20 0 28 40 0 0 20 0 
		54 0 0 0 0 0 0 0 0 0 0 32 0 0 0 0 0 0 0 40 0 0 0 0 0 0 37 0 0 0 28 0 0 0 0 30 0 0 0 0 0 32 0 0 0 0 30 0 0 33 0 0 0 0 0 0 0 0 0 0 0 0 0 23 0 32 0 0 0 0 0 0 0 0 0 0 29 0 37 0 0 0 35 39 0 0 0 0 0 0 0 0 0 39 0 0 0 0 
		55 0 0 0 35 21 0 0 0 0 0 0 0 0 0 0 0 0 0 0 0 0 0 0 0 0 0 0 0 0 0 0 0 0 0 0 0 0 0 0 0 36 0 0 0 0 28 0 0 0 0 0 0 0 0 0 0 0 0 0 0 0 0 0 0 0 0 0 0 0 0 0 0 0 37 0 0 0 0 0 0 0 0 0 0 0 0 0 0 0 0 0 0 0 0 0 0 0 
		56 0 0 22 0 20 24 0 0 24 0 0 0 0 0 0 0 0 0 0 0 0 0 0 0 0 0 0 0 0 0 0 0 0 0 0 0 0 0 0 0 0 0 0 0 0 29 0 0 0 0 0 35 0 0 0 0 0 0 0 0 0 0 0 0 0 0 38 0 0 0 0 33 0 0 0 0 0 0 32 0 0 0 0 0 0 0 0 0 0 0 0 0 0 0 0 0 0 
		57 0 0 36 0 0 0 0 0 0 0 0 0 0 0 0 0 0 40 0 0 0 39 0 0 0 0 0 0 0 0 0 20 0 0 0 21 0 0 0 0 0 0 24 0 0 0 0 0 0 0 40 0 0 0 0 0 0 0 0 0 0 35 0 0 0 21 36 0 0 0 0 0 23 0 0 0 0 0 0 34 0 25 0 0 0 0 0 0 36 0 0 0 0 0 30 0 0 
		58 0 0 0 0 38 30 34 0 22 0 0 0 0 0 0 0 0 26 0 30 0 0 0 0 0 0 0 0 24 0 0 0 23 0 0 0 31 0 0 0 0 0 0 0 0 0 0 0 24 0 0 0 0 0 0 0 0 0 0 0 0 0 0 0 0 39 27 0 39 0 39 0 0 0 0 0 0 0 0 0 0 0 0 0 0 0 0 0 0 0 0 0 0 0 0 0 0 
		59 0 33 0 0 0 0 0 40 0 0 0 0 0 0 0 0 0 0 0 0 0 0 23 24 0 37 0 29 0 0 0 0 0 0 0 0 0 0 0 22 29 0 0 0 0 0 0 0 0 0 0 0 0 0 0 0 0 0 0 0 0 0 35 0 0 0 0 0 0 0 0 0 24 0 0 0 0 0 0 0 0 0 0 0 0 0 0 0 0 37 0 0 0 0 0 34 0 
		60 0 0 0 0 0 0 0 0 27 0 0 0 0 0 0 26 0 0 0 0 0 0 0 38 0 0 0 0 0 0 0 0 0 0 0 0 0 0 0 0 0 0 0 0 0 0 0 30 0 0 0 0 31 0 0 0 0 0 0 0 0 0 0 0 0 0 0 24 0 0 0 0 0 0 0 0 0 0 0 0 0 0 0 0 35 0 0 0 0 0 0 0 0 25 0 0 0 
		61 0 0 0 0 0 0 0 0 34 0 31 0 26 0 0 0 0 0 0 0 0 0 0 0 0 0 0 0 0 0 39 0 0 0 0 0 0 0 0 0 0 0 0 0 0 0 0 0 0 0 0 0 0 0 0 0 0 35 0 0 0 0 0 0 0 0 0 0 0 32 28 0 0 0 0 0 0 0 0 0 33 0 0 0 0 0 0 0 0 0 0 0 0 0 0 36 0 
		62 30 36 0 0 0 0 24 0 27 0 0 0 0 30 0 0 0 0 0 0 0 0 0 0 0 24 0 24 26 0 37 33 26 0 26 38 24 0 0 0 0 0 0 0 0 0 0 0 0 0 0 0 0 0 23 0 0 0 0 35 0 0 0 0 23 0 0 0 0 0 25 0 0 0 0 0 23 0 0 0 0 0 0 30 0 0 0 0 0 25 0 0 0 0 0 0 0 
		63 0 0 0 0 0 0 0 0 0 0 0 0 0 0 23 32 0 0 0 0 0 0 27 0 0 0 0 0 0 20 0 0 0 0 0 0 0 0 0 0 0 0 0 28 0 0 0 0 0 0 0 0 0 0 0 0 0 0 0 0 0 0 0 0 0 0 0 0 28 0 0 0 0 0 0 0 0 0 0 24 0 24 0 0 0 30 0 0 0 30 0 0 29 34 0 0 0 
		64 0 0 34 0 0 0 0 0 0 36 33 0 0 0 0 0 0 0 0 0 0 0 0 26 0 26 0 0 0 0 0 36 0 20 0 0 0 0 24 0 29 0 0 0 0 0 28 0 0 0 0 0 0 0 32 0 0 0 0 0 0 0 23 0 0 0 0 25 0 0 0 0 0 0 0 24 0 0 0 37 0 0 0 0 0 0 20 0 0 33 0 0 0 0 0 0 0 
		65 0 0 0 0 0 0 0 0 0 0 22 0 0 0 0 0 0 0 0 0 0 31 0 0 38 0 0 0 0 0 0 0 0 0 0 0 0 0 0 0 0 0 0 0 0 0 0 0 0 0 0 0 0 0 0 0 0 21 39 0 0 0 0 0 0 0 0 0 0 0 0 0 0 0 0 0 0 0 0 0 0 0 0 0 0 0 22 0 40 0 0 0 0 0 0 0 0 
		66 0 0 0 0 0 40 0 0 0 0 0 0 20 0 0 0 0 0 0 0 0 0 0 0 29 0 0 0 0 0 0 0 0 0 0 0 0 0 0 0 0 0 0 0 0 0 0 0 0 0 0 0 0 0 0 0 38 36 27 0 0 0 0 0 0 0 0 0 35 0 0 0 0 0 0 0 0 0 0 0 0 0 0 0 0 0 0 0 0 0 0 0 0 0 0 0 0 
		67 35 0 0 0 0 0 0 0 0 0 0 24 0 0 0 0 0 0 0 0 0 0 0 0 0 0 0 0 0 0 0 0 0 0 0 0 0 0 0 0 0 0 0 0 23 26 0 0 0 0 0 0 0 0 0 0 0 0 0 0 24 0 0 0 25 0 0 0 0 0 0 0 27 0 36 0 28 0 0 0 0 0 0 0 0 0 0 31 0 0 0 0 0 0 0 0 0 
		68 0 0 0 0 31 0 0 0 32 0 0 0 0 22 0 0 0 0 0 0 0 29 0 0 0 0 0 0 0 0 0 0 0 0 0 0 37 0 0 40 0 0 0 0 0 0 0 0 0 0 35 0 0 0 0 0 0 0 39 0 0 0 0 28 0 0 35 0 0 0 0 0 0 0 0 0 0 0 0 0 0 0 0 0 0 0 0 0 0 0 0 0 0 0 27 0 0 
		69 0 0 0 0 0 0 0 0 0 0 0 0 0 0 0 0 24 0 0 0 0 0 0 0 0 0 0 0 0 0 0 27 0 0 0 28 0 0 0 0 31 0 0 0 0 0 0 31 0 0 0 0 0 0 0 0 0 0 0 0 0 32 0 0 0 0 0 0 0 0 36 0 0 36 0 0 0 0 0 0 0 0 0 0 0 0 27 0 0 0 0 0 0 0 0 0 0 
		70 0 0 26 0 0 0 0 0 0 0 0 0 24 0 0 0 0 0 0 0 0 0 0 0 0 0 0 0 0 0 0 0 0 0 0 0 0 0 0 0 0 0 0 0 0 0 0 0 0 0 40 0 0 0 0 0 0 0 39 0 0 28 25 0 0 0 0 0 0 36 0 0 0 0 29 0 0 34 0 0 0 36 37 0 0 0 0 0 0 0 0 0 0 0 0 0 0 
		71 0 0 0 0 0 0 0 0 0 0 0 0 0 0 0 0 0 0 0 0 0 0 0 0 0 0 0 0 0 0 0 0 0 0 0 0 0 0 27 20 30 0 0 0 0 0 0 0 0 0 0 20 0 0 0 0 33 0 0 0 0 0 0 0 0 0 0 0 0 0 0 0 0 35 26 0 0 0 0 0 0 0 0 0 0 0 0 0 0 0 0 0 0 0 0 0 0 
		72 0 0 0 0 0 0 0 0 0 0 0 0 0 0 0 0 39 0 0 0 0 0 0 0 0 0 0 0 0 0 0 0 0 0 32 0 0 0 0 0 29 24 0 0 0 0 0 0 0 0 0 0 0 0 0 0 0 23 0 24 0 0 0 0 0 0 0 27 0 0 0 0 0 0 0 0 0 0 0 0 0 0 0 0 0 0 0 0 0 0 0 0 0 0 0 0 0 
		73 31 0 0 0 38 0 0 0 0 23 0 36 0 0 0 0 0 0 0 0 0 0 0 0 0 0 0 0 0 0 0 20 0 0 0 0 0 34 0 0 0 0 0 0 0 0 0 0 0 0 0 0 0 0 0 37 0 0 0 0 0 0 0 0 0 0 0 0 0 36 0 35 0 0 0 0 0 0 0 0 27 0 0 0 0 0 0 0 0 0 0 0 30 27 0 0 0 
		74 0 0 0 0 0 0 0 0 0 0 0 25 0 0 0 0 0 0 0 0 0 0 0 0 0 0 0 0 0 0 0 0 22 0 0 0 0 0 0 0 0 0 0 0 0 0 0 0 0 0 0 0 0 0 0 0 0 0 0 0 0 0 0 0 0 0 0 36 0 0 29 26 0 0 0 0 0 0 0 0 0 0 0 0 0 0 0 32 0 0 0 0 0 0 0 39 0 
		75 0 0 0 0 0 0 29 36 0 0 0 0 0 0 0 0 28 0 0 0 0 0 0 0 0 0 0 35 0 0 0 0 0 34 0 0 0 0 0 0 0 0 0 0 33 0 0 0 0 0 0 0 28 0 29 0 0 0 0 0 0 0 0 0 24 0 0 0 0 0 0 0 0 0 0 0 39 0 0 0 0 0 0 0 0 0 0 0 29 0 0 0 0 0 0 0 0 
		76 0 0 0 0 0 0 0 0 0 0 0 39 0 0 0 0 0 0 0 0 0 0 29 0 0 0 0 0 0 0 0 0 36 0 0 0 0 0 0 0 0 0 0 40 0 0 0 0 0 0 0 0 0 20 0 0 0 0 0 0 0 0 23 0 0 0 0 28 0 0 0 0 0 0 0 39 0 0 0 0 0 0 0 0 0 35 0 0 0 0 0 0 0 0 0 0 0 
		77 32 0 0 0 0 0 0 0 0 0 0 0 0 0 0 0 0 0 0 33 0 0 0 0 0 36 0 39 0 0 0 0 0 0 0 0 0 0 0 39 38 0 0 0 21 0 0 0 0 0 0 0 37 0 37 0 0 0 0 0 0 0 0 0 0 0 0 0 0 0 34 0 0 0 0 0 0 0 0 0 0 0 0 0 0 0 0 0 40 0 0 0 0 0 0 0 0 
		78 35 25 0 0 0 0 0 0 0 0 0 0 0 0 0 0 0 0 0 0 0 0 0 37 0 0 21 0 0 0 0 0 0 0 0 0 0 29 37 0 0 0 0 0 0 0 0 0 0 0 0 0 0 0 0 0 32 0 0 0 0 0 0 0 0 0 0 0 0 0 0 0 0 0 0 0 0 0 0 0 0 0 0 33 0 0 0 0 0 0 0 0 0 37 0 0 33 
		79 0 0 0 0 0 0 0 0 0 0 0 0 35 0 0 0 0 0 0 28 0 0 0 0 26 31 0 0 35 0 0 39 0 22 0 0 0 22 29 23 0 0 29 0 37 33 0 0 34 0 0 0 0 0 0 0 0 34 0 0 0 0 0 24 37 0 0 0 0 0 0 0 0 0 0 0 0 0 0 0 0 0 0 0 29 0 0 0 0 0 0 34 0 0 0 0 0 
		80 0 0 0 0 0 0 0 0 27 0 0 0 0 0 0 0 0 0 33 0 0 0 0 0 0 0 0 0 0 0 0 0 0 0 0 0 0 0 0 0 0 0 0 0 0 0 0 0 0 30 0 0 36 0 0 0 0 0 0 0 0 33 0 0 0 0 0 0 0 0 0 0 0 27 0 0 0 0 0 0 0 0 0 0 0 0 0 0 26 0 0 0 0 0 0 27 0 
		81 0 0 0 35 0 0 39 0 0 0 0 0 0 0 36 0 0 0 0 0 0 0 0 0 0 0 0 0 0 0 0 0 0 0 0 0 0 0 0 0 0 0 0 0 0 24 0 0 23 0 0 0 0 0 35 0 0 25 0 0 0 0 0 24 0 0 0 0 0 0 36 0 0 0 0 0 0 0 0 0 0 0 0 0 0 0 0 0 0 0 0 0 0 0 0 33 0 
		82 0 20 0 0 0 0 0 26 0 0 0 0 0 0 0 0 0 0 39 0 0 0 0 0 22 0 0 0 0 0 0 0 0 0 0 0 0 0 0 0 0 0 0 0 0 0 20 0 0 0 0 0 0 0 39 0 0 0 0 0 0 0 0 0 0 0 0 0 0 0 37 0 0 0 0 0 0 0 0 0 0 0 0 0 0 0 0 0 0 0 0 0 0 0 0 0 0 
		83 0 0 0 0 0 0 0 0 0 0 0 0 0 0 0 0 0 0 0 0 0 0 0 0 0 0 0 0 0 0 0 20 0 0 0 0 0 27 0 0 0 0 28 0 0 0 0 0 0 39 0 28 0 0 0 0 0 0 0 0 0 0 30 0 0 0 0 0 0 0 0 0 0 0 0 0 0 0 33 0 0 0 0 0 32 0 0 0 0 0 0 0 0 0 0 0 0 
		84 0 0 0 0 0 0 0 0 40 0 0 0 0 0 0 0 0 0 0 0 0 27 0 0 0 0 34 0 0 0 0 0 40 0 0 0 0 21 0 0 0 0 0 0 0 0 0 0 0 22 0 0 0 0 0 0 0 0 0 0 35 0 0 0 0 0 0 0 0 0 0 0 0 0 0 0 0 0 0 29 0 0 0 32 0 0 0 25 0 0 0 0 0 0 0 0 0 
		85 23 0 0 33 0 0 0 0 0 0 0 0 27 0 0 0 0 0 0 0 0 0 0 0 0 0 0 0 0 0 0 21 0 40 0 0 0 0 0 0 0 0 34 0 0 0 0 27 35 0 0 36 0 0 0 0 0 0 0 0 0 0 0 30 0 0 0 0 0 0 0 0 0 0 0 0 35 0 0 0 0 0 0 0 0 0 0 0 0 0 0 0 0 0 0 0 0 
		86 0 23 0 0 0 0 0 0 0 0 24 0 0 20 0 0 0 0 0 0 0 0 0 0 0 0 21 0 26 0 0 0 0 0 0 0 0 0 0 0 0 0 0 0 0 0 23 0 0 0 0 0 0 0 0 0 0 0 0 0 0 0 0 0 20 22 0 0 0 27 0 0 0 0 0 0 0 0 0 0 0 0 0 0 0 0 0 0 0 0 0 0 0 0 0 0 0 
		87 0 0 0 0 26 0 0 0 0 0 0 34 0 0 0 0 0 0 0 0 39 0 0 0 0 0 0 0 0 0 0 0 29 0 30 0 0 0 29 24 0 0 0 0 0 0 0 0 0 0 0 0 0 0 0 0 0 0 0 0 0 0 0 0 0 0 0 31 0 0 0 0 0 0 32 0 0 0 0 0 0 0 0 0 25 0 0 0 21 0 0 0 0 26 0 22 0 
		88 0 0 0 23 0 38 0 0 0 0 0 0 0 0 0 0 0 0 0 0 0 0 0 0 0 0 35 0 0 37 0 0 0 0 0 0 0 0 0 28 0 0 0 0 0 0 0 23 0 0 0 0 32 0 0 0 0 36 0 0 0 0 0 0 0 40 0 0 0 0 0 0 0 0 0 29 0 40 0 0 26 0 0 0 0 0 0 21 0 0 0 0 0 0 0 0 0 
		89 39 0 36 27 0 0 27 0 0 0 0 0 20 0 0 0 0 0 0 0 0 0 0 22 0 0 0 0 0 0 0 0 0 0 0 0 0 0 33 0 0 0 0 29 0 21 34 0 0 0 0 27 0 20 0 0 0 0 0 37 0 0 25 30 33 0 0 0 0 0 0 0 0 0 0 0 0 0 0 0 0 0 0 0 0 0 0 0 0 0 0 0 0 0 0 0 0 
		90 0 0 0 23 0 0 0 0 0 0 39 0 0 0 0 0 32 0 0 0 0 0 0 0 0 0 0 0 0 0 0 0 0 0 0 0 0 0 0 0 0 0 0 0 0 0 25 0 0 0 0 25 0 0 0 0 0 0 0 0 0 0 0 0 0 0 0 0 0 0 0 0 0 0 0 0 0 0 0 0 0 0 0 0 0 0 0 0 0 0 0 0 0 0 0 0 0 
		91 0 0 0 0 0 0 0 0 0 0 0 0 0 0 23 0 0 0 0 0 0 0 0 0 0 0 0 0 0 0 0 0 0 0 0 0 0 0 22 0 0 0 0 0 0 0 0 0 0 0 0 0 0 28 0 0 0 0 0 0 0 0 0 0 0 0 0 0 0 0 0 0 0 0 0 0 0 0 0 34 0 0 0 0 0 0 0 0 0 0 0 0 0 0 0 26 0 
		92 23 0 0 0 0 0 0 37 0 0 0 0 0 0 0 0 29 0 0 0 0 0 0 0 0 0 26 0 0 0 0 31 0 0 0 0 0 22 0 0 25 36 0 0 40 0 0 0 0 0 0 0 0 40 39 0 0 0 0 0 0 0 0 29 0 0 0 0 0 0 0 0 0 30 0 0 0 0 0 0 0 0 0 0 0 0 0 0 0 0 0 0 0 0 0 0 0 
		93 22 0 0 0 39 0 0 0 0 0 0 0 0 0 0 29 0 0 0 0 0 0 38 0 0 0 0 0 0 0 0 0 0 0 0 0 0 0 22 0 0 0 0 0 0 35 0 0 0 0 0 0 0 0 0 0 0 0 0 0 25 0 0 34 0 0 0 0 0 0 0 0 0 27 0 0 0 0 37 0 0 0 0 0 0 0 0 26 0 0 0 0 0 0 0 0 0 
		94 0 0 0 36 0 0 0 0 0 20 0 0 0 27 0 0 0 35 0 0 0 0 0 0 0 32 0 0 0 0 25 0 0 0 0 0 0 28 0 23 0 0 0 0 0 0 0 0 0 0 0 24 23 0 0 0 0 30 0 0 0 0 0 0 0 0 0 0 27 0 0 0 0 0 0 0 0 0 0 0 0 0 0 0 0 0 0 0 0 0 0 0 0 0 0 0 0 
		95 0 0 0 0 0 0 0 0 0 0 0 0 37 0 0 35 29 0 0 0 0 0 0 0 0 25 0 0 39 30 39 0 0 0 0 0 0 0 0 0 0 38 32 0 0 0 0 0 0 0 0 0 0 20 0 0 0 0 0 34 0 36 0 0 0 0 0 0 0 0 0 0 0 0 39 0 0 0 0 0 27 33 0 0 0 0 0 22 0 0 0 26 0 0 0 0 0 
		96 0 0 0 0 0 0 0 0 0 0 0 0 0 0 0 0 0 0 0 0 0 0 0 32 0 0 32 0 0 0 0 0 0 0 0 24 0 0 0 0 0 26 0 23 38 0 0 0 38 0 0 0 0 0 0 0 0 0 0 0 0 0 0 0 0 0 0 0 0 0 0 0 0 0 0 0 0 0 33 0 0 0 0 0 0 0 0 0 0 0 0 0 0 0 0 0 0 
;
